48
2 47 118 
2 71 31 
2 79 28 
3 84 46 45 
2 75 39 
3 99 103 42 
2 10 35 
2 86 90 
3 4 8 55 
2 7 40 
2 27 105 
2 1 97 
2 19 54 
3 77 111 117 
3 98 70 61 
2 106 78 
2 51 43 
2 6 24 
3 83 5 26 
3 50 89 20 
3 110 56 2 
3 25 104 96 
3 53 113 92 
3 101 91 108 
2 64 94 
3 114 16 102 
3 63 66 13 
3 22 32 14 
3 21 41 36 
2 17 116 
3 3 62 11 
3 59 93 30 
3 9 23 82 
3 73 58 115 
3 85 80 95 
3 38 107 67 
3 112 29 81 
3 65 52 100 
2 69 18 
3 57 119 33 
2 37 49 
2 109 60 
2 68 74 
2 120 88 
3 12 87 15 
2 48 34 
1 44 
2 72 76 
